%nprocshared=24
%mem=120GB
%chk=01-24_irc2.chk
# irc=(CalcAll,Cartesian,maxpoints=500,maxcycle=64,stepsize=5) rwb97xd/Def2SVP scrf=(smd,solvent=thf) Integral(Grid=UltraFine) iop(1/7=1)

Title Card Required

0 1
 C                 -0.68508200   -2.17045300   -0.35768900
 H                 -0.38066500   -1.56390300    0.51192900
 C                 -1.96780700   -1.58157000   -0.91964600
 H                 -1.79198400   -0.56377100   -1.29099100
 H                 -2.38843200   -2.20138700   -1.72419400
 C                  0.43622900   -2.01290600   -1.40995800
 H                  0.11971500   -2.54654900   -2.32575700
 H                  1.30031300   -2.58920700   -1.03296500
 C                  0.84704000   -0.58859100   -1.75528700
 H                  0.56423600   -0.26998000   -2.77136800
 C                  2.10791700   -0.03999600   -1.28906800
 C                  2.68257300    1.14024200   -1.73194600
 H                  3.61633000    1.50913300   -1.29904100
 H                  2.29680500    1.68030300   -2.60678600
 C                  3.11691500   -1.61906100    2.00946100
 C                  4.47356300   -1.49333400    1.28564200
 H                  3.09075300   -1.05915700    2.95620800
 H                  2.84971300   -2.66545000    2.22251100
 H                  5.17243700   -0.82808900    1.81552100
 H                  4.96728200   -2.46657400    1.14590600
 B                  2.81715800   -0.69673900   -0.04423200
 O                  4.16249100   -0.93352900    0.01487700
 O                  2.16839200   -1.06612000    1.10478200
 P                 -0.59474500    2.78514600    0.33861800
 C                 -0.86090900    4.24060800   -0.73567000
 H                 -1.32438900    5.06909000   -0.17808300
 H                  0.10531800    4.57233100   -1.14390100
 H                 -1.51182700    3.96232400   -1.57785500
 C                  0.34196700    3.47145200    1.75172600
 H                  1.33972300    3.78209900    1.40755100
 H                 -0.17601700    4.33402000    2.19898200
 H                  0.47229100    2.69159800    2.51703000
 C                 -2.25091400    2.47458400    1.04818300
 H                 -2.18544000    1.66060300    1.78482800
 H                 -2.65353000    3.37609000    1.53613300
 H                 -2.93723300    2.15447700    0.25064000
 Cu                 0.37864000    1.07501100   -0.64824700
 Br                -3.40218100   -1.39094100    0.40584200
 C                 -0.84448900   -3.62355700    0.07503200
 H                 -1.63764500   -3.74034900    0.82929600
 H                 -1.09812200   -4.26830300   -0.78363800
 H                  0.09243100   -4.00254800    0.51265700

