%chk=methanol.chk
# opt=nomicro external="python c:/xtb/bin/xtb_win.py"

Title Card Required

0 1
 C                 -0.83454282   -0.22496371    0.00000000
 H                 -0.47788840   -1.23377371    0.00000000
 H                 -0.47786998    0.27943448   -0.87365150
 H                 -1.90454282   -0.22495053    0.00000000
 O                 -0.35786790    0.44913855    1.16759033
 H                 -0.93882798    1.18552308    1.37209757

